c *********************************
c * Circuit generated by BenCGen
c *
c * CarryLookahead_7_7_7_InOutT
c *
c * Ports with 1 gate(s): 2
c * Ports with 2 gate(s): 30
c * Ports with 3 gate(s): 7
c * Ports with 4 gate(s): 6
c * Ports with 5 gate(s): 5
c * Ports with 6 gate(s): 4
c * Ports with 7 gate(s): 3
c * Ports with 8 gate(s): 2
c * Total gates: 59
c *********************************
p cnf 73 266
1 24 0
-1 -24 0
1 -23 0
24 -23 0
-1 -24 23 0
1 8 -25 0
-1 8 25 0
1 -8 25 0
-1 -8 -25 0
1 -32 0
8 -32 0
-1 -8 32 0
2 9 -26 0
-2 9 26 0
2 -9 26 0
-2 -9 -26 0
2 -33 0
9 -33 0
-2 -9 33 0
3 10 -27 0
-3 10 27 0
3 -10 27 0
-3 -10 -27 0
3 -34 0
10 -34 0
-3 -10 34 0
4 11 -28 0
-4 11 28 0
4 -11 28 0
-4 -11 -28 0
4 -35 0
11 -35 0
-4 -11 35 0
5 12 -29 0
-5 12 29 0
5 -12 29 0
-5 -12 -29 0
5 -36 0
12 -36 0
-5 -12 36 0
6 13 -30 0
-6 13 30 0
6 -13 30 0
-6 -13 -30 0
6 -37 0
13 -37 0
-6 -13 37 0
7 14 -31 0
-7 14 31 0
7 -14 31 0
-7 -14 -31 0
7 -38 0
14 -38 0
-7 -14 38 0
23 -46 0
25 -46 0
-23 -25 46 0
23 -47 0
25 -47 0
26 -47 0
-23 -25 -26 47 0
32 -48 0
26 -48 0
-32 -26 48 0
23 -49 0
25 -49 0
26 -49 0
27 -49 0
-23 -25 -26 -27 49 0
32 -50 0
26 -50 0
27 -50 0
-32 -26 -27 50 0
33 -51 0
27 -51 0
-33 -27 51 0
23 -52 0
25 -52 0
26 -52 0
27 -52 0
28 -52 0
-23 -25 -26 -27 -28 52 0
32 -53 0
26 -53 0
27 -53 0
28 -53 0
-32 -26 -27 -28 53 0
33 -54 0
27 -54 0
28 -54 0
-33 -27 -28 54 0
34 -55 0
28 -55 0
-34 -28 55 0
23 -56 0
25 -56 0
26 -56 0
27 -56 0
28 -56 0
29 -56 0
-23 -25 -26 -27 -28 -29 56 0
32 -57 0
26 -57 0
27 -57 0
28 -57 0
29 -57 0
-32 -26 -27 -28 -29 57 0
33 -58 0
27 -58 0
28 -58 0
29 -58 0
-33 -27 -28 -29 58 0
34 -59 0
28 -59 0
29 -59 0
-34 -28 -29 59 0
35 -60 0
29 -60 0
-35 -29 60 0
23 -61 0
25 -61 0
26 -61 0
27 -61 0
28 -61 0
29 -61 0
30 -61 0
-23 -25 -26 -27 -28 -29 -30 61 0
32 -62 0
26 -62 0
27 -62 0
28 -62 0
29 -62 0
30 -62 0
-32 -26 -27 -28 -29 -30 62 0
33 -63 0
27 -63 0
28 -63 0
29 -63 0
30 -63 0
-33 -27 -28 -29 -30 63 0
34 -64 0
28 -64 0
29 -64 0
30 -64 0
-34 -28 -29 -30 64 0
35 -65 0
29 -65 0
30 -65 0
-35 -29 -30 65 0
36 -66 0
30 -66 0
-36 -30 66 0
23 -67 0
25 -67 0
26 -67 0
27 -67 0
28 -67 0
29 -67 0
30 -67 0
31 -67 0
-23 -25 -26 -27 -28 -29 -30 -31 67 0
32 -68 0
26 -68 0
27 -68 0
28 -68 0
29 -68 0
30 -68 0
31 -68 0
-32 -26 -27 -28 -29 -30 -31 68 0
33 -69 0
27 -69 0
28 -69 0
29 -69 0
30 -69 0
31 -69 0
-33 -27 -28 -29 -30 -31 69 0
34 -70 0
28 -70 0
29 -70 0
30 -70 0
31 -70 0
-34 -28 -29 -30 -31 70 0
35 -71 0
29 -71 0
30 -71 0
31 -71 0
-35 -29 -30 -31 71 0
36 -72 0
30 -72 0
31 -72 0
-36 -30 -31 72 0
37 -73 0
31 -73 0
-37 -31 73 0
-32 39 0
-46 39 0
32 46 -39 0
-33 40 0
-47 40 0
-48 40 0
33 47 48 -40 0
-34 41 0
-49 41 0
-50 41 0
-51 41 0
34 49 50 51 -41 0
-35 42 0
-52 42 0
-53 42 0
-54 42 0
-55 42 0
35 52 53 54 55 -42 0
-36 43 0
-56 43 0
-57 43 0
-58 43 0
-59 43 0
-60 43 0
36 56 57 58 59 60 -43 0
-37 44 0
-61 44 0
-62 44 0
-63 44 0
-64 44 0
-65 44 0
-66 44 0
37 61 62 63 64 65 66 -44 0
-38 45 0
-67 45 0
-68 45 0
-69 45 0
-70 45 0
-71 45 0
-72 45 0
-73 45 0
38 67 68 69 70 71 72 73 -45 0
25 23 -15 0
-25 23 15 0
25 -23 15 0
-25 -23 -15 0
26 39 -16 0
-26 39 16 0
26 -39 16 0
-26 -39 -16 0
27 40 -17 0
-27 40 17 0
27 -40 17 0
-27 -40 -17 0
28 41 -18 0
-28 41 18 0
28 -41 18 0
-28 -41 -18 0
29 42 -19 0
-29 42 19 0
29 -42 19 0
-29 -42 -19 0
30 43 -20 0
-30 43 20 0
30 -43 20 0
-30 -43 -20 0
31 44 -21 0
-31 44 21 0
31 -44 21 0
-31 -44 -21 0
45 -22 0
-45 22 0
